(declare-fun x_0 () Real)
(declare-fun y_0 () Real)
(declare-fun return () Real)
(assert (and (=> (distinct x_0 0.0) (= y_0 (* x_0 x_0))) (=> (not (distinct x_0 0.0)) (= y_0 y_-1))))
(assert (= return 0))
(assert (and (>= (+ x_0 1.0) 0) (<= x_0 1.0)))
(assert (not (distinct return 0.0)))
(check-sat)
(get-model)